99 74 55 11 30 78 65 31 86 85 47 57 2 28 32 68 69 17 77 13 97 38 56 14 66 81 58 54 52 40 26 87 9 61 5 94 44 49 34 70 10 37 89 63 62 64 72 88 75 36 60 29 18 79 67 22 35 90 45 48 92 71 93 24 95 23 7 20 39 15 96 1 59 3 0 33 50 19 27 43 98 12 4 41 16 91 80 21 42 76 25 46 6 53 8 84 83 51 82 73
